NAME : 0
COMMENT : CVRP Instance
TYPE : CVRP
DIMENSION : 766
EDGE_WEIGHT_TYPE : EUC_2D
CAPACITY : 166
NODE_COORD_SECTION
1	0.0	0.0
2	409.0	418.0
3	378.0	220.0
4	469.0	585.0
5	91.0	695.0
6	455.0	648.0
7	86.0	403.0
8	493.0	292.0
9	124.0	630.0
10	43.0	202.0
11	961.0	668.0
12	538.0	143.0
13	114.0	523.0
14	273.0	287.0
15	884.0	865.0
16	551.0	791.0
17	609.0	232.0
18	69.0	625.0
19	191.0	484.0
20	562.0	650.0
21	858.0	506.0
22	688.0	951.0
23	174.0	158.0
24	175.0	404.0
25	314.0	484.0
26	210.0	517.0
27	574.0	158.0
28	76.0	499.0
29	136.0	195.0
30	47.0	593.0
31	87.0	897.0
32	526.0	650.0
33	683.0	60.0
34	437.0	962.0
35	863.0	428.0
36	866.0	335.0
37	16.0	391.0
38	948.0	422.0
39	1.0	945.0
40	13.0	299.0
41	404.0	889.0
42	974.0	290.0
43	59.0	281.0
44	966.0	52.0
45	815.0	145.0
46	238.0	897.0
47	546.0	414.0
48	297.0	370.0
49	421.0	143.0
50	292.0	86.0
51	420.0	958.0
52	661.0	796.0
53	98.0	757.0
54	15.0	722.0
55	599.0	669.0
56	287.0	134.0
57	925.0	251.0
58	115.0	179.0
59	449.0	945.0
60	487.0	960.0
61	683.0	779.0
62	628.0	855.0
63	290.0	322.0
64	145.0	109.0
65	356.0	887.0
66	416.0	654.0
67	899.0	981.0
68	228.0	187.0
69	634.0	10.0
70	673.0	503.0
71	999.0	237.0
72	280.0	64.0
73	407.0	977.0
74	417.0	841.0
75	773.0	52.0
76	922.0	376.0
77	270.0	503.0
78	998.0	123.0
79	353.0	527.0
80	352.0	21.0
81	19.0	697.0
82	590.0	322.0
83	326.0	401.0
84	851.0	668.0
85	156.0	557.0
86	700.0	423.0
87	232.0	556.0
88	272.0	248.0
89	383.0	472.0
90	659.0	930.0
91	62.0	513.0
92	551.0	459.0
93	108.0	723.0
94	127.0	359.0
95	765.0	936.0
96	199.0	264.0
97	942.0	980.0
98	595.0	746.0
99	736.0	127.0
100	808.0	393.0
101	194.0	803.0
102	879.0	138.0
103	329.0	531.0
104	544.0	840.0
105	384.0	143.0
106	622.0	102.0
107	350.0	231.0
108	656.0	364.0
109	730.0	846.0
110	800.0	218.0
111	556.0	454.0
112	967.0	994.0
113	654.0	141.0
114	213.0	582.0
115	158.0	64.0
116	381.0	518.0
117	281.0	153.0
118	991.0	305.0
119	322.0	68.0
120	378.0	996.0
121	941.0	397.0
122	89.0	16.0
123	666.0	113.0
124	518.0	249.0
125	665.0	277.0
126	796.0	357.0
127	759.0	988.0
128	938.0	366.0
129	688.0	589.0
130	224.0	487.0
131	626.0	118.0
132	852.0	200.0
133	948.0	17.0
134	816.0	580.0
135	243.0	75.0
136	55.0	873.0
137	585.0	640.0
138	841.0	326.0
139	41.0	67.0
140	418.0	268.0
141	445.0	424.0
142	897.0	432.0
143	404.0	444.0
144	391.0	537.0
145	574.0	728.0
146	411.0	117.0
147	167.0	197.0
148	502.0	596.0
149	724.0	799.0
150	137.0	619.0
151	121.0	457.0
152	857.0	627.0
153	847.0	277.0
154	658.0	690.0
155	508.0	997.0
156	638.0	579.0
157	601.0	692.0
158	884.0	98.0
159	524.0	729.0
160	610.0	664.0
161	845.0	965.0
162	554.0	127.0
163	817.0	205.0
164	612.0	861.0
165	142.0	905.0
166	735.0	77.0
167	990.0	120.0
168	63.0	415.0
169	259.0	715.0
170	322.0	763.0
171	97.0	810.0
172	459.0	337.0
173	664.0	488.0
174	538.0	13.0
175	148.0	748.0
176	876.0	902.0
177	30.0	706.0
178	434.0	176.0
179	604.0	49.0
180	464.0	151.0
181	734.0	742.0
182	390.0	613.0
183	879.0	972.0
184	957.0	393.0
185	351.0	361.0
186	614.0	200.0
187	840.0	412.0
188	162.0	699.0
189	166.0	217.0
190	640.0	833.0
191	309.0	407.0
192	468.0	408.0
193	663.0	357.0
194	834.0	918.0
195	560.0	636.0
196	338.0	624.0
197	29.0	716.0
198	885.0	881.0
199	819.0	918.0
200	818.0	716.0
201	657.0	620.0
202	315.0	660.0
203	767.0	710.0
204	28.0	821.0
205	639.0	287.0
206	973.0	213.0
207	37.0	615.0
208	669.0	338.0
209	273.0	325.0
210	533.0	9.0
211	716.0	872.0
212	517.0	434.0
213	561.0	232.0
214	0.0	537.0
215	843.0	863.0
216	929.0	542.0
217	705.0	899.0
218	207.0	798.0
219	911.0	610.0
220	339.0	859.0
221	612.0	102.0
222	316.0	810.0
223	365.0	275.0
224	760.0	848.0
225	393.0	15.0
226	313.0	107.0
227	104.0	662.0
228	280.0	739.0
229	860.0	699.0
230	517.0	239.0
231	982.0	715.0
232	570.0	26.0
233	27.0	603.0
234	71.0	270.0
235	301.0	17.0
236	376.0	970.0
237	618.0	71.0
238	451.0	280.0
239	322.0	295.0
240	21.0	95.0
241	552.0	836.0
242	957.0	868.0
243	756.0	914.0
244	911.0	695.0
245	456.0	521.0
246	216.0	642.0
247	266.0	379.0
248	23.0	325.0
249	157.0	140.0
250	689.0	733.0
251	971.0	840.0
252	420.0	309.0
253	187.0	599.0
254	160.0	281.0
255	942.0	581.0
256	736.0	235.0
257	283.0	191.0
258	243.0	947.0
259	701.0	533.0
260	688.0	457.0
261	882.0	105.0
262	880.0	403.0
263	727.0	763.0
264	570.0	595.0
265	623.0	916.0
266	841.0	842.0
267	950.0	982.0
268	752.0	33.0
269	853.0	91.0
270	224.0	467.0
271	252.0	39.0
272	184.0	424.0
273	117.0	489.0
274	956.0	1000.0
275	972.0	425.0
276	895.0	182.0
277	668.0	858.0
278	289.0	178.0
279	397.0	772.0
280	490.0	992.0
281	958.0	336.0
282	308.0	253.0
283	270.0	351.0
284	654.0	299.0
285	143.0	955.0
286	423.0	495.0
287	288.0	575.0
288	647.0	818.0
289	585.0	134.0
290	874.0	685.0
291	599.0	498.0
292	812.0	27.0
293	346.0	184.0
294	225.0	623.0
295	306.0	312.0
296	66.0	672.0
297	692.0	808.0
298	873.0	625.0
299	963.0	854.0
300	406.0	262.0
301	592.0	596.0
302	541.0	20.0
303	78.0	96.0
304	406.0	574.0
305	218.0	533.0
306	779.0	657.0
307	615.0	657.0
308	721.0	148.0
309	447.0	492.0
310	468.0	394.0
311	486.0	290.0
312	579.0	792.0
313	356.0	736.0
314	315.0	612.0
315	58.0	395.0
316	290.0	79.0
317	729.0	421.0
318	356.0	702.0
319	656.0	508.0
320	743.0	847.0
321	548.0	92.0
322	454.0	572.0
323	49.0	808.0
324	902.0	700.0
325	503.0	186.0
326	801.0	148.0
327	968.0	613.0
328	309.0	508.0
329	484.0	528.0
330	417.0	871.0
331	590.0	883.0
332	588.0	906.0
333	85.0	837.0
334	651.0	193.0
335	50.0	718.0
336	939.0	795.0
337	105.0	219.0
338	679.0	87.0
339	935.0	858.0
340	637.0	841.0
341	43.0	674.0
342	3.0	542.0
343	783.0	185.0
344	539.0	977.0
345	605.0	590.0
346	960.0	56.0
347	587.0	221.0
348	581.0	900.0
349	194.0	248.0
350	207.0	151.0
351	293.0	630.0
352	273.0	573.0
353	422.0	318.0
354	234.0	860.0
355	301.0	713.0
356	206.0	726.0
357	602.0	361.0
358	859.0	230.0
359	962.0	915.0
360	550.0	353.0
361	249.0	328.0
362	725.0	828.0
363	81.0	319.0
364	549.0	215.0
365	585.0	62.0
366	806.0	233.0
367	417.0	151.0
368	29.0	337.0
369	28.0	797.0
370	903.0	544.0
371	180.0	278.0
372	894.0	511.0
373	708.0	654.0
374	146.0	870.0
375	537.0	706.0
376	622.0	795.0
377	951.0	148.0
378	492.0	839.0
379	104.0	80.0
380	775.0	9.0
381	789.0	686.0
382	227.0	95.0
383	452.0	189.0
384	488.0	244.0
385	457.0	60.0
386	465.0	796.0
387	605.0	462.0
388	978.0	354.0
389	894.0	959.0
390	648.0	116.0
391	596.0	57.0
392	560.0	381.0
393	337.0	243.0
394	555.0	699.0
395	466.0	780.0
396	556.0	92.0
397	348.0	195.0
398	725.0	18.0
399	672.0	142.0
400	534.0	484.0
401	595.0	369.0
402	547.0	135.0
403	503.0	150.0
404	588.0	394.0
405	472.0	40.0
406	525.0	398.0
407	542.0	437.0
408	650.0	135.0
409	942.0	842.0
410	552.0	921.0
411	466.0	261.0
412	584.0	443.0
413	683.0	192.0
414	479.0	62.0
415	626.0	568.0
416	439.0	321.0
417	718.0	266.0
418	533.0	231.0
419	674.0	161.0
420	669.0	79.0
421	428.0	5.0
422	638.0	718.0
423	34.0	333.0
424	403.0	892.0
425	384.0	624.0
426	575.0	146.0
427	648.0	154.0
428	656.0	373.0
429	436.0	227.0
430	455.0	104.0
431	883.0	410.0
432	460.0	81.0
433	415.0	834.0
434	655.0	565.0
435	747.0	331.0
436	985.0	962.0
437	659.0	480.0
438	775.0	47.0
439	520.0	443.0
440	546.0	530.0
441	643.0	534.0
442	410.0	356.0
443	920.0	324.0
444	610.0	14.0
445	527.0	229.0
446	641.0	50.0
447	456.0	14.0
448	491.0	20.0
449	559.0	497.0
450	856.0	433.0
451	638.0	485.0
452	463.0	71.0
453	537.0	185.0
454	367.0	202.0
455	959.0	121.0
456	586.0	434.0
457	303.0	743.0
458	377.0	740.0
459	683.0	191.0
460	437.0	871.0
461	638.0	183.0
462	898.0	946.0
463	654.0	71.0
464	535.0	8.0
465	816.0	858.0
466	848.0	841.0
467	623.0	349.0
468	562.0	292.0
469	469.0	187.0
470	933.0	277.0
471	502.0	750.0
472	557.0	736.0
473	909.0	533.0
474	522.0	831.0
475	986.0	393.0
476	638.0	100.0
477	498.0	835.0
478	590.0	404.0
479	554.0	269.0
480	771.0	974.0
481	542.0	759.0
482	781.0	219.0
483	466.0	370.0
484	236.0	287.0
485	470.0	231.0
486	375.0	290.0
487	538.0	500.0
488	637.0	176.0
489	432.0	394.0
490	500.0	734.0
491	950.0	392.0
492	519.0	148.0
493	459.0	713.0
494	535.0	229.0
495	406.0	224.0
496	912.0	370.0
497	893.0	908.0
498	402.0	173.0
499	515.0	391.0
500	525.0	148.0
501	763.0	808.0
502	557.0	729.0
503	500.0	29.0
504	637.0	159.0
505	976.0	323.0
506	541.0	414.0
507	260.0	372.0
508	398.0	168.0
509	480.0	253.0
510	633.0	412.0
511	514.0	765.0
512	574.0	448.0
513	931.0	992.0
514	537.0	73.0
515	361.0	158.0
516	539.0	292.0
517	538.0	113.0
518	491.0	269.0
519	549.0	360.0
520	497.0	533.0
521	733.0	250.0
522	548.0	50.0
523	908.0	293.0
524	683.0	466.0
525	699.0	366.0
526	562.0	673.0
527	467.0	137.0
528	610.0	675.0
529	625.0	465.0
530	641.0	54.0
531	630.0	119.0
532	431.0	793.0
533	328.0	389.0
534	372.0	101.0
535	524.0	908.0
536	858.0	6.0
537	435.0	784.0
538	525.0	509.0
539	584.0	463.0
540	519.0	733.0
541	317.0	132.0
542	604.0	158.0
543	983.0	457.0
544	511.0	585.0
545	455.0	748.0
546	907.0	343.0
547	627.0	247.0
548	901.0	332.0
549	689.0	533.0
550	546.0	156.0
551	355.0	930.0
552	588.0	246.0
553	404.0	127.0
554	601.0	493.0
555	388.0	924.0
556	600.0	73.0
557	930.0	112.0
558	686.0	332.0
559	395.0	917.0
560	507.0	405.0
561	479.0	820.0
562	615.0	262.0
563	876.0	977.0
564	435.0	108.0
565	809.0	927.0
566	521.0	849.0
567	601.0	80.0
568	48.0	799.0
569	717.0	125.0
570	546.0	482.0
571	322.0	236.0
572	905.0	895.0
573	511.0	215.0
574	166.0	836.0
575	498.0	231.0
576	481.0	19.0
577	618.0	125.0
578	509.0	79.0
579	539.0	424.0
580	787.0	969.0
581	919.0	958.0
582	409.0	768.0
583	477.0	915.0
584	420.0	79.0
585	568.0	275.0
586	839.0	150.0
587	355.0	725.0
588	495.0	783.0
589	615.0	191.0
590	766.0	234.0
591	673.0	566.0
592	423.0	762.0
593	442.0	171.0
594	403.0	55.0
595	639.0	371.0
596	837.0	336.0
597	885.0	892.0
598	384.0	474.0
599	862.0	505.0
600	309.0	275.0
601	992.0	289.0
602	697.0	410.0
603	390.0	123.0
604	305.0	640.0
605	359.0	186.0
606	629.0	740.0
607	544.0	788.0
608	435.0	59.0
609	499.0	737.0
610	974.0	260.0
611	339.0	757.0
612	602.0	118.0
613	770.0	156.0
614	989.0	366.0
615	424.0	61.0
616	353.0	228.0
617	441.0	358.0
618	531.0	189.0
619	497.0	210.0
620	539.0	312.0
621	576.0	115.0
622	502.0	232.0
623	373.0	696.0
624	859.0	428.0
625	616.0	417.0
626	508.0	89.0
627	561.0	324.0
628	595.0	357.0
629	998.0	458.0
630	806.0	797.0
631	485.0	162.0
632	829.0	360.0
633	449.0	277.0
634	526.0	761.0
635	455.0	768.0
636	450.0	54.0
637	908.0	981.0
638	335.0	791.0
639	502.0	274.0
640	923.0	363.0
641	698.0	99.0
642	909.0	979.0
643	986.0	411.0
644	614.0	151.0
645	413.0	713.0
646	698.0	294.0
647	668.0	73.0
648	446.0	237.0
649	556.0	420.0
650	557.0	187.0
651	544.0	515.0
652	475.0	826.0
653	552.0	849.0
654	346.0	216.0
655	471.0	100.0
656	511.0	178.0
657	769.0	505.0
658	569.0	541.0
659	919.0	370.0
660	699.0	319.0
661	989.0	314.0
662	455.0	187.0
663	945.0	932.0
664	479.0	893.0
665	639.0	494.0
666	634.0	166.0
667	948.0	927.0
668	820.0	824.0
669	652.0	92.0
670	948.0	942.0
671	372.0	659.0
672	542.0	251.0
673	342.0	391.0
674	480.0	220.0
675	789.0	947.0
676	478.0	242.0
677	683.0	440.0
678	973.0	865.0
679	943.0	907.0
680	551.0	554.0
681	633.0	204.0
682	426.0	745.0
683	927.0	980.0
684	471.0	77.0
685	459.0	225.0
686	602.0	251.0
687	481.0	4.0
688	628.0	134.0
689	346.0	250.0
690	656.0	459.0
691	558.0	601.0
692	768.0	185.0
693	631.0	104.0
694	966.0	113.0
695	809.0	870.0
696	494.0	697.0
697	615.0	458.0
698	600.0	127.0
699	807.0	418.0
700	477.0	744.0
701	416.0	19.0
702	975.0	299.0
703	649.0	646.0
704	640.0	109.0
705	610.0	549.0
706	482.0	113.0
707	989.0	457.0
708	341.0	236.0
709	493.0	862.0
710	523.0	10.0
711	936.0	356.0
712	720.0	140.0
713	943.0	386.0
714	628.0	427.0
715	485.0	338.0
716	788.0	498.0
717	617.0	155.0
718	587.0	435.0
719	443.0	245.0
720	571.0	95.0
721	655.0	196.0
722	332.0	64.0
723	668.0	266.0
724	408.0	844.0
725	653.0	182.0
726	687.0	234.0
727	937.0	404.0
728	864.0	155.0
729	499.0	203.0
730	503.0	291.0
731	499.0	103.0
732	987.0	528.0
733	385.0	875.0
734	789.0	895.0
735	415.0	607.0
736	537.0	223.0
737	621.0	144.0
738	371.0	45.0
739	407.0	837.0
740	484.0	378.0
741	710.0	162.0
742	640.0	104.0
743	671.0	15.0
744	978.0	976.0
745	669.0	224.0
746	269.0	160.0
747	403.0	3.0
748	482.0	896.0
749	499.0	14.0
750	628.0	69.0
751	984.0	364.0
752	924.0	466.0
753	922.0	957.0
754	744.0	71.0
755	393.0	41.0
756	418.0	720.0
757	914.0	314.0
758	409.0	313.0
759	501.0	85.0
760	737.0	602.0
761	432.0	103.0
762	429.0	662.0
763	358.0	858.0
764	512.0	303.0
765	490.0	80.0
766	360.0	105.0
DEMAND_SECTION
1	0
2	85
3	89
4	71
5	68
6	52
7	76
8	57
9	73
10	89
11	100
12	61
13	92
14	99
15	56
16	91
17	71
18	69
19	79
20	93
21	61
22	94
23	63
24	89
25	88
26	100
27	96
28	92
29	75
30	69
31	72
32	86
33	77
34	68
35	81
36	100
37	95
38	68
39	71
40	79
41	55
42	73
43	82
44	67
45	91
46	96
47	62
48	76
49	53
50	78
51	53
52	61
53	100
54	70
55	57
56	99
57	61
58	55
59	66
60	57
61	70
62	73
63	84
64	80
65	84
66	94
67	53
68	99
69	61
70	96
71	80
72	67
73	87
74	91
75	58
76	84
77	96
78	96
79	97
80	68
81	100
82	60
83	90
84	81
85	60
86	91
87	97
88	55
89	64
90	75
91	65
92	67
93	51
94	60
95	56
96	62
97	85
98	73
99	68
100	81
101	80
102	100
103	64
104	84
105	78
106	54
107	9
108	6
109	4
110	3
111	5
112	7
113	5
114	6
115	10
116	4
117	1
118	4
119	9
120	5
121	2
122	5
123	1
124	7
125	7
126	10
127	1
128	9
129	9
130	5
131	8
132	2
133	3
134	8
135	8
136	9
137	9
138	5
139	1
140	1
141	5
142	2
143	1
144	5
145	7
146	10
147	10
148	6
149	9
150	3
151	2
152	3
153	2
154	2
155	9
156	3
157	6
158	8
159	6
160	9
161	5
162	10
163	6
164	10
165	6
166	7
167	2
168	1
169	9
170	4
171	8
172	7
173	5
174	9
175	10
176	3
177	10
178	5
179	9
180	7
181	9
182	8
183	1
184	8
185	6
186	9
187	10
188	6
189	9
190	2
191	2
192	3
193	7
194	4
195	9
196	2
197	7
198	7
199	9
200	7
201	9
202	8
203	5
204	5
205	6
206	6
207	4
208	2
209	5
210	5
211	10
212	8
213	4
214	2
215	9
216	3
217	5
218	10
219	6
220	7
221	10
222	2
223	9
224	5
225	9
226	9
227	1
228	10
229	8
230	3
231	2
232	9
233	10
234	2
235	4
236	7
237	10
238	7
239	7
240	6
241	5
242	3
243	6
244	2
245	5
246	8
247	8
248	9
249	2
250	5
251	1
252	9
253	1
254	1
255	1
256	7
257	1
258	7
259	5
260	8
261	2
262	6
263	1
264	9
265	7
266	8
267	7
268	7
269	1
270	3
271	1
272	5
273	4
274	10
275	9
276	1
277	5
278	7
279	2
280	1
281	10
282	9
283	5
284	5
285	5
286	3
287	9
288	2
289	8
290	1
291	1
292	7
293	1
294	9
295	1
296	9
297	10
298	7
299	7
300	7
301	10
302	8
303	8
304	3
305	2
306	9
307	2
308	9
309	7
310	2
311	1
312	9
313	2
314	3
315	3
316	7
317	3
318	8
319	7
320	2
321	2
322	4
323	4
324	1
325	9
326	5
327	4
328	3
329	3
330	3
331	5
332	10
333	1
334	3
335	10
336	3
337	3
338	4
339	8
340	7
341	4
342	6
343	10
344	7
345	10
346	9
347	6
348	8
349	9
350	1
351	7
352	10
353	4
354	7
355	5
356	1
357	8
358	6
359	1
360	3
361	8
362	9
363	5
364	7
365	5
366	1
367	1
368	7
369	10
370	5
371	8
372	8
373	7
374	2
375	9
376	6
377	6
378	1
379	6
380	10
381	5
382	3
383	2
384	8
385	8
386	5
387	7
388	1
389	9
390	4
391	6
392	1
393	8
394	5
395	10
396	1
397	5
398	5
399	2
400	7
401	4
402	6
403	5
404	4
405	10
406	1
407	3
408	1
409	3
410	1
411	8
412	5
413	3
414	7
415	4
416	9
417	5
418	8
419	3
420	2
421	6
422	2
423	1
424	10
425	5
426	6
427	1
428	6
429	4
430	7
431	7
432	6
433	8
434	9
435	3
436	9
437	4
438	6
439	3
440	2
441	3
442	1
443	2
444	7
445	6
446	5
447	5
448	4
449	10
450	9
451	5
452	8
453	1
454	3
455	9
456	2
457	2
458	3
459	1
460	2
461	4
462	10
463	7
464	7
465	6
466	7
467	2
468	3
469	3
470	10
471	2
472	3
473	9
474	4
475	1
476	7
477	6
478	10
479	7
480	8
481	3
482	1
483	5
484	10
485	6
486	8
487	2
488	10
489	1
490	10
491	3
492	4
493	8
494	6
495	6
496	1
497	8
498	2
499	6
500	1
501	8
502	6
503	2
504	6
505	3
506	2
507	9
508	8
509	7
510	5
511	5
512	1
513	8
514	7
515	7
516	1
517	5
518	2
519	3
520	6
521	4
522	8
523	9
524	3
525	8
526	7
527	5
528	2
529	8
530	7
531	8
532	5
533	3
534	5
535	6
536	4
537	9
538	8
539	6
540	3
541	10
542	1
543	9
544	8
545	6
546	9
547	1
548	5
549	9
550	5
551	3
552	3
553	4
554	10
555	2
556	1
557	7
558	7
559	8
560	2
561	9
562	3
563	9
564	6
565	10
566	10
567	6
568	8
569	7
570	4
571	7
572	3
573	7
574	2
575	3
576	9
577	1
578	9
579	2
580	2
581	2
582	1
583	6
584	3
585	4
586	9
587	4
588	2
589	7
590	7
591	6
592	3
593	2
594	5
595	3
596	8
597	1
598	5
599	5
600	2
601	2
602	3
603	3
604	3
605	3
606	10
607	9
608	8
609	6
610	10
611	2
612	6
613	4
614	1
615	5
616	9
617	6
618	6
619	7
620	8
621	1
622	10
623	3
624	8
625	10
626	4
627	1
628	2
629	9
630	10
631	6
632	9
633	5
634	8
635	7
636	3
637	8
638	7
639	9
640	7
641	1
642	5
643	2
644	10
645	10
646	10
647	10
648	4
649	3
650	6
651	5
652	2
653	10
654	9
655	10
656	10
657	6
658	2
659	7
660	3
661	6
662	9
663	10
664	9
665	9
666	10
667	2
668	8
669	5
670	6
671	6
672	9
673	1
674	6
675	6
676	5
677	2
678	8
679	6
680	9
681	7
682	9
683	9
684	5
685	9
686	6
687	10
688	10
689	3
690	3
691	2
692	1
693	4
694	5
695	1
696	7
697	6
698	3
699	9
700	8
701	8
702	9
703	3
704	6
705	7
706	5
707	6
708	4
709	1
710	9
711	5
712	7
713	1
714	9
715	3
716	10
717	9
718	4
719	6
720	2
721	2
722	9
723	10
724	9
725	8
726	9
727	10
728	4
729	9
730	8
731	2
732	7
733	8
734	10
735	2
736	1
737	3
738	5
739	5
740	10
741	1
742	5
743	8
744	2
745	6
746	8
747	8
748	1
749	2
750	5
751	1
752	8
753	6
754	1
755	2
756	1
757	8
758	5
759	1
760	4
761	10
762	9
763	2
764	7
765	8
766	9
DEPOT_SECTION
1
-1
EOF
